c output.enc
c
p cnf 50 20 
c =========  rule 1  ============
-43 44 34 2 0
-29 30 18 2 0
-47 48 34 2 0
-15 16 4 2 0
-31 32 18 2 0
-37 38 34 2 0
-39 40 34 2 0
-7 8 4 2 0
-21 22 18 2 0
-1 2 0
-13 14 4 2 0
-19 20 18 2 0
-3 4 2 0
-41 42 34 2 0
-49 50 34 2 0
-5 6 4 2 0
-45 46 34 2 0
-35 36 34 2 0
-17 18 2 0
-33 34 2 0
